20
99.99
0 19 9.63 0.23
1 18 9.06 0.21
2 17 8.41 0.17
3 16 8.62 0.22
4 15 11.07 0.19
5 14 11.29 0.22
6 13 8.23 0.22
7 12 8.75 0.21
8 11 12.36 0.22
9 10 5.5 0.21
10 9 14.22 0.25
11 8 5.88 0.3
12 7 11.14 0.19
13 6 12.67 0.15
14 5 5.0 0.2
15 4 4.25 0.24
16 3 15.0 0.25
17 2 20.0 0.35
18 1 20.0 0.22
